2,3
3,8
5,5
7,1
8,7
10,4
12,0
13,7
15,4
17,1
18,9
21,1
23,4
25,6
27,8
30,0
32,2
34,5
36,7
38,9
41,1
43,3
45,5
47,7
49,9
52,1
54,4
56,6
58,8
61,0
63,2
65,5
67,7
69,9
72,1
74,1
74,1
74,1
74,1
74,1
74,1
74,1
74,1
74,1
74,1
74,1
74,1
74,1
74,1
74,1
74,1
74,1
74,1
74,1
74,1
74,1
74,1
74,1
74,1
74,1
74,1
74,1
74,1
74,1
74,1
74,1
74,1
74,1
74,1
74,1
74,1
74,1
74,1
74,1
74,1
74,1
74,1
74,1
0,0
0,0
0,0
